NAME : cgl_73.6263.tour
COMMENT : Length = 6263
COMMENT : Found by LKH-3 [Keld Helsgaun] Thu Jun 26 21:26:49 2025
TYPE : TOUR
DIMENSION : 74
TOUR_SECTION
22
23
71
72
25
24
73
26
29
27
28
56
57
55
52
48
47
51
50
49
53
54
59
37
39
33
35
32
38
58
36
34
43
41
45
40
46
44
42
31
30
68
70
69
61
60
62
64
67
63
65
66
74
21
3
5
7
4
6
8
2
19
20
16
15
18
17
14
11
9
13
10
12
1
-1
EOF
